Optimal - objective value -2919.00000000
     35 x_35                   1                       0
     82 x_82                   1                       0
     83 x_83                   1                       0
    176 x_176                  1                    36.9
    200 x_200                  1                       0
    220 x_220                  1                       0
    245 x_245                  1                   -27.5
    281 x_281                  1                       0
    300 x_300                  1                       0
    301 x_301                  1                   -16.5
    320 x_320                  1                       0
    344 x_344                  1                       0
    348 x_348                  1                    -3.2
    408 x_408                  1                       0
    434 x_434                  1                    27.2
    472 x_472                  1                    43.2
    518 x_518                  1                    65.7
    531 x_531                  1                       0
    543 x_543                  1                    16.5
    554 x_554                  1                       0
    598 x_598                  1                       0
    654 x_654                  1                       0
    688 x_688                  1                       0
    716 x_716                  1                       0
    722 x_722                  1                       0
    753 x_753                  1         0.29999999999999
    766 x_766                  1                       0
    840 x_840                  1                       0
    859 x_859                  1                       0
    886 x_886                  1         7.30000000000002
    904 x_904                  1                       0
    921 x_921                  1                      -4
    944 x_944                  1                      -7
    965 x_965                  1                    46.2
    980 x_980                  1         4.39999999999998
   1003 x_1003                 1                       0
   1010 x_1010                 1                       0
   1052 x_1052                 1                       8
   1086 x_1086                 1                       0
   1087 x_1087                 1                       0
   1097 x_1097                 1                       0
   1118 x_1118                 1                       0
   1161 x_1161                 1                    -8.2
   1173 x_1173                 1                       0
   1182 x_1182                 1                      13
